Maximize
  - 3.95183110619 edge_0_1_0_0 - 3.46494 edge_0_2_0_0
   - 1.4345138660615 edge_0_3_0_0 - 3.2508296099004 edge_0_6_0_0
   - 3.4251013986722 edge_0_7_0_0 - 3.6641757382256 edge_0_11_0_0
   - 3.3218582162132 edge_0_12_0_0 - 2.8716826963572 edge_0_14_0_0
   - 3.490118952964 edge_0_16_0_0 - 0.038145685334771 edge_1_2_0_0
   - 0.2009758996841377 edge_1_3_0_0 - 0.4274562133460189 edge_1_4_0_0
   - 0.6755234347555381 edge_1_6_0_0 - 1.182575066944695 edge_1_7_0_0
   + 0.075585172919155 edge_1_8_0_0 - 0.4931169911076846 edge_1_10_0_0
   - 0.29258541523162 edge_1_17_0_0 - 0.1046759284472 edge_2_1_0_0
   + 0.8868808358911501 edge_2_3_0_0 + 0.023210719147938 edge_2_4_0_0
   + 0.7900074311942401 edge_2_6_0_0 + 1.2218178862514 edge_2_7_0_0
   + 0.50474501785524 edge_2_8_0_0 + 0.44054774855322 edge_2_10_0_0
   - 0.48225895471403 edge_2_11_0_0 + 0.22139435204692 edge_2_12_0_0
   - 0.24703479097638 edge_2_14_0_0 - 0.3123149063055 edge_2_16_0_0
   + 0.8064894677166 edge_2_17_0_0 + 0.7296848305117244 edge_3_1_0_0
   + 2.1129494831965 edge_3_2_0_0 + 0.5000342416556196 edge_3_4_0_0
   - 0.076924508002578 edge_3_5_0_0 + 1.618316229183729 edge_3_6_0_0
   + 2.527875255885842 edge_3_7_0_0 + 1.442290023972868 edge_3_8_0_0
   + 1.071048618529197 edge_3_10_0_0 + 0.8632823842696477 edge_3_11_0_0
   + 0.1029824512344888 edge_3_12_0_0 + 0.8044576095012806 edge_3_14_0_0
   + 0.6086423736554196 edge_3_15_0_0 + 0.39718030798398 edge_3_16_0_0
   + 2.751117105813312 edge_3_17_0_0 - 0.4248686371118201 edge_4_1_0_0
   + 0.1781625820573 edge_4_2_0_0 + 0.5751754743151563 edge_4_3_0_0
   + 1.696668802005219 edge_4_6_0_0 + 0.9540715330008525 edge_4_7_0_0
   + 0.078322448988418 edge_4_8_0_0 - 0.5267904352008989 edge_4_10_0_0
   + 0.0757112622445105 edge_4_11_0_0 - 0.7544497711882741 edge_4_12_0_0
   - 0.3886646691259685 edge_4_14_0_0 - 0.86966111067525 edge_4_16_0_0
   - 0.1781863142305039 edge_5_4_0_0 + 0.0348291887409271 edge_5_7_0_0
   - 0.2407256242813616 edge_6_1_0_0 + 0.7206849135178 edge_6_2_0_0
   + 0.4229519408191533 edge_6_3_0_0 + 3.866188899427776 edge_6_4_0_0
   + 4.456793516504214 edge_6_5_0_0 + 2.884957139967801 edge_6_7_0_0
   + 1.029061565516739 edge_6_8_0_0 + 2.000273192169065 edge_6_10_0_0
   + 2.416179078027076 edge_6_11_0_0 + 1.830195839394447 edge_6_12_0_0
   + 1.230123134792105 edge_6_14_0_0 - 0.1162855454562128 edge_6_15_0_0
   + 0.5547894341143199 edge_6_16_0_0 + 1.624938732546929 edge_6_17_0_0
   - 0.6778380638703407 edge_7_1_0_0 + 0.26413654304299 edge_7_2_0_0
   + 0.7389709200036167 edge_7_3_0_0 + 3.027130221151757 edge_7_4_0_0
   + 1.785207413188607 edge_7_5_0_0 + 1.860705441262818 edge_7_6_0_0
   + 1.351483345550567 edge_7_8_0_0 + 1.118172889165955 edge_7_10_0_0
   + 2.172665100392259 edge_7_11_0_0 + 0.704276627195327 edge_7_12_0_0
   + 1.052264510462048 edge_7_14_0_0 - 0.7131500254121134 edge_7_15_0_0
   + 0.4520290823793346 edge_7_16_0_0 + 0.6075527518137191 edge_7_17_0_0
   + 0.1430446707672371 edge_8_11_0_0 - 0.2638515937419956 edge_8_12_0_0
   - 1.063713537485902 edge_10_6_0_0 - 0.2698337346777289 edge_10_12_0_0
   - 1.124382007807388 edge_10_14_0_0 - 2.195463752785065 edge_11_1_0_0
   - 1.5128543772706 edge_11_2_0_0 - 1.601654995456431 edge_11_3_0_0
   - 0.1319463060321993 edge_11_4_0_0 + 0.241118540531645 edge_11_5_0_0
   - 0.9332963899611998 edge_11_6_0_0 + 2.213941207726887 edge_11_7_0_0
   + 0.3599966208657936 edge_11_8_0_0 + 0.7416252265090283 edge_11_12_0_0
   + 0.195905314432733 edge_11_13_0_0 + 0.5909178965549141 edge_11_14_0_0
   - 0.3305821109800893 edge_11_15_0_0 + 0.45021461557644 edge_11_16_0_0
   + 1.078959694364632 edge_11_17_0_0 - 0.6875159546264386 edge_12_1_0_0
   - 0.36246371159318 edge_12_2_0_0 + 0.489068656255381 edge_12_3_0_0
   - 0.1386817967885907 edge_12_4_0_0 + 0.508661416342039 edge_12_5_0_0
   - 0.2163859540187609 edge_12_6_0_0 - 0.2949395904343058 edge_12_7_0_0
   + 0.1308162193262619 edge_12_8_0_0 + 0.792371272646015 edge_12_10_0_0
   + 0.3669530752461648 edge_12_11_0_0 + 1.361118650047862 edge_12_13_0_0
   + 1.556504456221665 edge_12_14_0_0 + 0.0402578900075108 edge_12_15_0_0
   + 1.427467993343873 edge_12_16_0_0 + 1.3176134142236 edge_12_17_0_0
   + 0.1843670679490688 edge_13_12_0_0 - 0.2142975277996028 edge_14_1_0_0
   + 0.5042494497145601 edge_14_2_0_0 + 0.2651583208476488 edge_14_3_0_0
   + 0.072222378418617 edge_14_4_0_0 + 0.8828169553995409 edge_14_5_0_0
   + 0.6919765128784121 edge_14_6_0_0 + 0.1135213289439912 edge_14_7_0_0
   + 1.220397408728928 edge_14_8_0_0 + 1.196439109016484 edge_14_10_0_0
   - 0.4870695260325267 edge_14_11_0_0 + 1.347840356045937 edge_14_12_0_0
   + 3.838086180683215 edge_14_13_0_0 + 2.708174270259246 edge_14_14_0_0
   + 0.5773342863172499 edge_14_15_0_0 + 2.985360324045634 edge_14_16_0_0
   + 2.1191624717219 edge_14_17_0_0 + 0.5567926957019435 edge_15_12_0_0
   + 0.7261707082825549 edge_15_14_0_0 + 1.940971275867 edge_15_16_0_0
   + 0.053353687519221 edge_15_17_0_0 - 0.99718063128948 edge_16_1_0_0
   - 0.881547 edge_16_2_0_0 - 0.6562397235032201 edge_16_3_0_0
   - 1.791574907899 edge_16_4_0_0 - 0.1049999874 edge_16_6_0_0
   - 0.9907528340897199 edge_16_7_0_0 + 0.09214953337392 edge_16_8_0_0
   - 0.1538599694082153 edge_16_10_0_0 - 0.98058057563414 edge_16_11_0_0
   - 0.50578945707872 edge_16_12_0_0 + 0.9882362875262 edge_16_13_0_0
   + 0.9607769423533801 edge_16_14_0_0 + 3.5499662285844 edge_16_15_0_0
   + 1.078199288388 edge_16_17_0_0
Subject To
 one_parent_1: edge_0_1_0_0 + edge_2_1_0_0 + edge_3_1_0_0 + edge_4_1_0_0
   + edge_6_1_0_0 + edge_7_1_0_0 + edge_11_1_0_0 + edge_12_1_0_0
   + edge_14_1_0_0 + edge_16_1_0_0 = 1
 consume_one_flow_unit_1: flow_0_1_0_0 - flow_1_2_0_0 - flow_1_3_0_0
   - flow_1_4_0_0 - flow_1_6_0_0 - flow_1_7_0_0 - flow_1_8_0_0
   - flow_1_10_0_0 - flow_1_17_0_0 + flow_2_1_0_0 + flow_3_1_0_0
   + flow_4_1_0_0 + flow_6_1_0_0 + flow_7_1_0_0 + flow_11_1_0_0
   + flow_12_1_0_0 + flow_14_1_0_0 + flow_16_1_0_0 = 1
 one_parent_2: edge_0_2_0_0 + edge_1_2_0_0 + edge_3_2_0_0 + edge_4_2_0_0
   + edge_6_2_0_0 + edge_7_2_0_0 + edge_11_2_0_0 + edge_12_2_0_0
   + edge_14_2_0_0 + edge_16_2_0_0 = 1
 consume_one_flow_unit_2: flow_0_2_0_0 + flow_1_2_0_0 - flow_2_1_0_0
   - flow_2_3_0_0 - flow_2_4_0_0 - flow_2_6_0_0 - flow_2_7_0_0
   - flow_2_8_0_0 - flow_2_10_0_0 - flow_2_11_0_0 - flow_2_12_0_0
   - flow_2_14_0_0 - flow_2_16_0_0 - flow_2_17_0_0 + flow_3_2_0_0
   + flow_4_2_0_0 + flow_6_2_0_0 + flow_7_2_0_0 + flow_11_2_0_0
   + flow_12_2_0_0 + flow_14_2_0_0 + flow_16_2_0_0 = 1
 one_parent_3: edge_0_3_0_0 + edge_1_3_0_0 + edge_2_3_0_0 + edge_4_3_0_0
   + edge_6_3_0_0 + edge_7_3_0_0 + edge_11_3_0_0 + edge_12_3_0_0
   + edge_14_3_0_0 + edge_16_3_0_0 = 1
 consume_one_flow_unit_3: flow_0_3_0_0 + flow_1_3_0_0 + flow_2_3_0_0
   - flow_3_1_0_0 - flow_3_2_0_0 - flow_3_4_0_0 - flow_3_5_0_0
   - flow_3_6_0_0 - flow_3_7_0_0 - flow_3_8_0_0 - flow_3_10_0_0
   - flow_3_11_0_0 - flow_3_12_0_0 - flow_3_14_0_0 - flow_3_15_0_0
   - flow_3_16_0_0 - flow_3_17_0_0 + flow_4_3_0_0 + flow_6_3_0_0
   + flow_7_3_0_0 + flow_11_3_0_0 + flow_12_3_0_0 + flow_14_3_0_0
   + flow_16_3_0_0 = 1
 one_parent_4: edge_1_4_0_0 + edge_2_4_0_0 + edge_3_4_0_0 + edge_5_4_0_0
   + edge_6_4_0_0 + edge_7_4_0_0 + edge_11_4_0_0 + edge_12_4_0_0
   + edge_14_4_0_0 + edge_16_4_0_0 = 1
 consume_one_flow_unit_4: flow_1_4_0_0 + flow_2_4_0_0 + flow_3_4_0_0
   - flow_4_1_0_0 - flow_4_2_0_0 - flow_4_3_0_0 - flow_4_6_0_0
   - flow_4_7_0_0 - flow_4_8_0_0 - flow_4_10_0_0 - flow_4_11_0_0
   - flow_4_12_0_0 - flow_4_14_0_0 - flow_4_16_0_0 + flow_5_4_0_0
   + flow_6_4_0_0 + flow_7_4_0_0 + flow_11_4_0_0 + flow_12_4_0_0
   + flow_14_4_0_0 + flow_16_4_0_0 = 1
 one_parent_5: edge_3_5_0_0 + edge_6_5_0_0 + edge_7_5_0_0 + edge_11_5_0_0
   + edge_12_5_0_0 + edge_14_5_0_0 = 1
 consume_one_flow_unit_5: flow_3_5_0_0 - flow_5_4_0_0 - flow_5_7_0_0
   + flow_6_5_0_0 + flow_7_5_0_0 + flow_11_5_0_0 + flow_12_5_0_0
   + flow_14_5_0_0 = 1
 one_parent_6: edge_0_6_0_0 + edge_1_6_0_0 + edge_2_6_0_0 + edge_3_6_0_0
   + edge_4_6_0_0 + edge_7_6_0_0 + edge_10_6_0_0 + edge_11_6_0_0
   + edge_12_6_0_0 + edge_14_6_0_0 + edge_16_6_0_0 = 1
 consume_one_flow_unit_6: flow_0_6_0_0 + flow_1_6_0_0 + flow_2_6_0_0
   + flow_3_6_0_0 + flow_4_6_0_0 - flow_6_1_0_0 - flow_6_2_0_0
   - flow_6_3_0_0 - flow_6_4_0_0 - flow_6_5_0_0 - flow_6_7_0_0
   - flow_6_8_0_0 - flow_6_10_0_0 - flow_6_11_0_0 - flow_6_12_0_0
   - flow_6_14_0_0 - flow_6_15_0_0 - flow_6_16_0_0 - flow_6_17_0_0
   + flow_7_6_0_0 + flow_10_6_0_0 + flow_11_6_0_0 + flow_12_6_0_0
   + flow_14_6_0_0 + flow_16_6_0_0 = 1
 one_parent_7: edge_0_7_0_0 + edge_1_7_0_0 + edge_2_7_0_0 + edge_3_7_0_0
   + edge_4_7_0_0 + edge_5_7_0_0 + edge_6_7_0_0 + edge_11_7_0_0
   + edge_12_7_0_0 + edge_14_7_0_0 + edge_16_7_0_0 = 1
 consume_one_flow_unit_7: flow_0_7_0_0 + flow_1_7_0_0 + flow_2_7_0_0
   + flow_3_7_0_0 + flow_4_7_0_0 + flow_5_7_0_0 + flow_6_7_0_0
   - flow_7_1_0_0 - flow_7_2_0_0 - flow_7_3_0_0 - flow_7_4_0_0
   - flow_7_5_0_0 - flow_7_6_0_0 - flow_7_8_0_0 - flow_7_10_0_0
   - flow_7_11_0_0 - flow_7_12_0_0 - flow_7_14_0_0 - flow_7_15_0_0
   - flow_7_16_0_0 - flow_7_17_0_0 + flow_11_7_0_0 + flow_12_7_0_0
   + flow_14_7_0_0 + flow_16_7_0_0 = 1
 one_parent_8: edge_1_8_0_0 + edge_2_8_0_0 + edge_3_8_0_0 + edge_4_8_0_0
   + edge_6_8_0_0 + edge_7_8_0_0 + edge_11_8_0_0 + edge_12_8_0_0
   + edge_14_8_0_0 + edge_16_8_0_0 = 1
 consume_one_flow_unit_8: flow_1_8_0_0 + flow_2_8_0_0 + flow_3_8_0_0
   + flow_4_8_0_0 + flow_6_8_0_0 + flow_7_8_0_0 - flow_8_11_0_0
   - flow_8_12_0_0 + flow_11_8_0_0 + flow_12_8_0_0 + flow_14_8_0_0
   + flow_16_8_0_0 = 1
 one_parent_9: = 1
 consume_one_flow_unit_9: = 1
 one_parent_10: edge_1_10_0_0 + edge_2_10_0_0 + edge_3_10_0_0
   + edge_4_10_0_0 + edge_6_10_0_0 + edge_7_10_0_0 + edge_12_10_0_0
   + edge_14_10_0_0 + edge_16_10_0_0 = 1
 consume_one_flow_unit_10: flow_1_10_0_0 + flow_2_10_0_0 + flow_3_10_0_0
   + flow_4_10_0_0 + flow_6_10_0_0 + flow_7_10_0_0 - flow_10_6_0_0
   - flow_10_12_0_0 - flow_10_14_0_0 + flow_12_10_0_0 + flow_14_10_0_0
   + flow_16_10_0_0 = 1
 one_parent_11: edge_0_11_0_0 + edge_2_11_0_0 + edge_3_11_0_0
   + edge_4_11_0_0 + edge_6_11_0_0 + edge_7_11_0_0 + edge_8_11_0_0
   + edge_12_11_0_0 + edge_14_11_0_0 + edge_16_11_0_0 = 1
 consume_one_flow_unit_11: flow_0_11_0_0 + flow_2_11_0_0 + flow_3_11_0_0
   + flow_4_11_0_0 + flow_6_11_0_0 + flow_7_11_0_0 + flow_8_11_0_0
   - flow_11_1_0_0 - flow_11_2_0_0 - flow_11_3_0_0 - flow_11_4_0_0
   - flow_11_5_0_0 - flow_11_6_0_0 - flow_11_7_0_0 - flow_11_8_0_0
   - flow_11_12_0_0 - flow_11_13_0_0 - flow_11_14_0_0 - flow_11_15_0_0
   - flow_11_16_0_0 - flow_11_17_0_0 + flow_12_11_0_0 + flow_14_11_0_0
   + flow_16_11_0_0 = 1
 one_parent_12: edge_0_12_0_0 + edge_2_12_0_0 + edge_3_12_0_0
   + edge_4_12_0_0 + edge_6_12_0_0 + edge_7_12_0_0 + edge_8_12_0_0
   + edge_10_12_0_0 + edge_11_12_0_0 + edge_13_12_0_0 + edge_14_12_0_0
   + edge_15_12_0_0 + edge_16_12_0_0 = 1
 consume_one_flow_unit_12: flow_0_12_0_0 + flow_2_12_0_0 + flow_3_12_0_0
   + flow_4_12_0_0 + flow_6_12_0_0 + flow_7_12_0_0 + flow_8_12_0_0
   + flow_10_12_0_0 + flow_11_12_0_0 - flow_12_1_0_0 - flow_12_2_0_0
   - flow_12_3_0_0 - flow_12_4_0_0 - flow_12_5_0_0 - flow_12_6_0_0
   - flow_12_7_0_0 - flow_12_8_0_0 - flow_12_10_0_0 - flow_12_11_0_0
   - flow_12_13_0_0 - flow_12_14_0_0 - flow_12_15_0_0 - flow_12_16_0_0
   - flow_12_17_0_0 + flow_13_12_0_0 + flow_14_12_0_0 + flow_15_12_0_0
   + flow_16_12_0_0 = 1
 one_parent_13: edge_11_13_0_0 + edge_12_13_0_0 + edge_14_13_0_0
   + edge_16_13_0_0 = 1
 consume_one_flow_unit_13: flow_11_13_0_0 + flow_12_13_0_0 - flow_13_12_0_0
   + flow_14_13_0_0 + flow_16_13_0_0 = 1
 one_parent_14: edge_0_14_0_0 + edge_2_14_0_0 + edge_3_14_0_0
   + edge_4_14_0_0 + edge_6_14_0_0 + edge_7_14_0_0 + edge_10_14_0_0
   + edge_11_14_0_0 + edge_12_14_0_0 + edge_14_14_0_0 + edge_15_14_0_0
   + edge_16_14_0_0 = 1
 consume_one_flow_unit_14: flow_0_14_0_0 + flow_2_14_0_0 + flow_3_14_0_0
   + flow_4_14_0_0 + flow_6_14_0_0 + flow_7_14_0_0 + flow_10_14_0_0
   + flow_11_14_0_0 + flow_12_14_0_0 - flow_14_1_0_0 - flow_14_2_0_0
   - flow_14_3_0_0 - flow_14_4_0_0 - flow_14_5_0_0 - flow_14_6_0_0
   - flow_14_7_0_0 - flow_14_8_0_0 - flow_14_10_0_0 - flow_14_11_0_0
   - flow_14_12_0_0 - flow_14_13_0_0 - flow_14_15_0_0 - flow_14_16_0_0
   - flow_14_17_0_0 + flow_15_14_0_0 + flow_16_14_0_0 = 1
 one_parent_15: edge_3_15_0_0 + edge_6_15_0_0 + edge_7_15_0_0
   + edge_11_15_0_0 + edge_12_15_0_0 + edge_14_15_0_0 + edge_16_15_0_0 = 1
 consume_one_flow_unit_15: flow_3_15_0_0 + flow_6_15_0_0 + flow_7_15_0_0
   + flow_11_15_0_0 + flow_12_15_0_0 + flow_14_15_0_0 - flow_15_12_0_0
   - flow_15_14_0_0 - flow_15_16_0_0 - flow_15_17_0_0 + flow_16_15_0_0 = 1
 one_parent_16: edge_0_16_0_0 + edge_2_16_0_0 + edge_3_16_0_0
   + edge_4_16_0_0 + edge_6_16_0_0 + edge_7_16_0_0 + edge_11_16_0_0
   + edge_12_16_0_0 + edge_14_16_0_0 + edge_15_16_0_0 = 1
 consume_one_flow_unit_16: flow_0_16_0_0 + flow_2_16_0_0 + flow_3_16_0_0
   + flow_4_16_0_0 + flow_6_16_0_0 + flow_7_16_0_0 + flow_11_16_0_0
   + flow_12_16_0_0 + flow_14_16_0_0 + flow_15_16_0_0 - flow_16_1_0_0
   - flow_16_2_0_0 - flow_16_3_0_0 - flow_16_4_0_0 - flow_16_6_0_0
   - flow_16_7_0_0 - flow_16_8_0_0 - flow_16_10_0_0 - flow_16_11_0_0
   - flow_16_12_0_0 - flow_16_13_0_0 - flow_16_14_0_0 - flow_16_15_0_0
   - flow_16_17_0_0 = 1
 one_parent_17: edge_1_17_0_0 + edge_2_17_0_0 + edge_3_17_0_0
   + edge_6_17_0_0 + edge_7_17_0_0 + edge_11_17_0_0 + edge_12_17_0_0
   + edge_14_17_0_0 + edge_15_17_0_0 + edge_16_17_0_0 = 1
 consume_one_flow_unit_17: flow_1_17_0_0 + flow_2_17_0_0 + flow_3_17_0_0
   + flow_6_17_0_0 + flow_7_17_0_0 + flow_11_17_0_0 + flow_12_17_0_0
   + flow_14_17_0_0 + flow_15_17_0_0 + flow_16_17_0_0 = 1
 root_flow: flow_0_1_0_0 + flow_0_2_0_0 + flow_0_3_0_0 + flow_0_6_0_0
   + flow_0_7_0_0 + flow_0_11_0_0 + flow_0_12_0_0 + flow_0_14_0_0
   + flow_0_16_0_0 = 17
 inactive_no_flow_0_1_0_0: flow_0_1_0_0 - 1000 edge_0_1_0_0 <= 0
 inactive_no_flow_0_2_0_0: flow_0_2_0_0 - 1000 edge_0_2_0_0 <= 0
 inactive_no_flow_0_3_0_0: flow_0_3_0_0 - 1000 edge_0_3_0_0 <= 0
 inactive_no_flow_0_6_0_0: flow_0_6_0_0 - 1000 edge_0_6_0_0 <= 0
 inactive_no_flow_0_7_0_0: flow_0_7_0_0 - 1000 edge_0_7_0_0 <= 0
 inactive_no_flow_0_11_0_0: flow_0_11_0_0 - 1000 edge_0_11_0_0 <= 0
 inactive_no_flow_0_12_0_0: flow_0_12_0_0 - 1000 edge_0_12_0_0 <= 0
 inactive_no_flow_0_14_0_0: flow_0_14_0_0 - 1000 edge_0_14_0_0 <= 0
 inactive_no_flow_0_16_0_0: flow_0_16_0_0 - 1000 edge_0_16_0_0 <= 0
 inactive_no_flow_1_2_0_0: flow_1_2_0_0 - 1000 edge_1_2_0_0 <= 0
 inactive_no_flow_1_3_0_0: flow_1_3_0_0 - 1000 edge_1_3_0_0 <= 0
 inactive_no_flow_1_4_0_0: flow_1_4_0_0 - 1000 edge_1_4_0_0 <= 0
 inactive_no_flow_1_6_0_0: flow_1_6_0_0 - 1000 edge_1_6_0_0 <= 0
 inactive_no_flow_1_7_0_0: flow_1_7_0_0 - 1000 edge_1_7_0_0 <= 0
 inactive_no_flow_1_8_0_0: flow_1_8_0_0 - 1000 edge_1_8_0_0 <= 0
 inactive_no_flow_1_10_0_0: flow_1_10_0_0 - 1000 edge_1_10_0_0 <= 0
 inactive_no_flow_1_17_0_0: flow_1_17_0_0 - 1000 edge_1_17_0_0 <= 0
 inactive_no_flow_2_1_0_0: flow_2_1_0_0 - 1000 edge_2_1_0_0 <= 0
 inactive_no_flow_2_3_0_0: flow_2_3_0_0 - 1000 edge_2_3_0_0 <= 0
 inactive_no_flow_2_4_0_0: flow_2_4_0_0 - 1000 edge_2_4_0_0 <= 0
 inactive_no_flow_2_6_0_0: flow_2_6_0_0 - 1000 edge_2_6_0_0 <= 0
 inactive_no_flow_2_7_0_0: flow_2_7_0_0 - 1000 edge_2_7_0_0 <= 0
 inactive_no_flow_2_8_0_0: flow_2_8_0_0 - 1000 edge_2_8_0_0 <= 0
 inactive_no_flow_2_10_0_0: flow_2_10_0_0 - 1000 edge_2_10_0_0 <= 0
 inactive_no_flow_2_11_0_0: flow_2_11_0_0 - 1000 edge_2_11_0_0 <= 0
 inactive_no_flow_2_12_0_0: flow_2_12_0_0 - 1000 edge_2_12_0_0 <= 0
 inactive_no_flow_2_14_0_0: flow_2_14_0_0 - 1000 edge_2_14_0_0 <= 0
 inactive_no_flow_2_16_0_0: flow_2_16_0_0 - 1000 edge_2_16_0_0 <= 0
 inactive_no_flow_2_17_0_0: flow_2_17_0_0 - 1000 edge_2_17_0_0 <= 0
 inactive_no_flow_3_1_0_0: flow_3_1_0_0 - 1000 edge_3_1_0_0 <= 0
 inactive_no_flow_3_2_0_0: flow_3_2_0_0 - 1000 edge_3_2_0_0 <= 0
 inactive_no_flow_3_4_0_0: flow_3_4_0_0 - 1000 edge_3_4_0_0 <= 0
 inactive_no_flow_3_5_0_0: flow_3_5_0_0 - 1000 edge_3_5_0_0 <= 0
 inactive_no_flow_3_6_0_0: flow_3_6_0_0 - 1000 edge_3_6_0_0 <= 0
 inactive_no_flow_3_7_0_0: flow_3_7_0_0 - 1000 edge_3_7_0_0 <= 0
 inactive_no_flow_3_8_0_0: flow_3_8_0_0 - 1000 edge_3_8_0_0 <= 0
 inactive_no_flow_3_10_0_0: flow_3_10_0_0 - 1000 edge_3_10_0_0 <= 0
 inactive_no_flow_3_11_0_0: flow_3_11_0_0 - 1000 edge_3_11_0_0 <= 0
 inactive_no_flow_3_12_0_0: flow_3_12_0_0 - 1000 edge_3_12_0_0 <= 0
 inactive_no_flow_3_14_0_0: flow_3_14_0_0 - 1000 edge_3_14_0_0 <= 0
 inactive_no_flow_3_15_0_0: flow_3_15_0_0 - 1000 edge_3_15_0_0 <= 0
 inactive_no_flow_3_16_0_0: flow_3_16_0_0 - 1000 edge_3_16_0_0 <= 0
 inactive_no_flow_3_17_0_0: flow_3_17_0_0 - 1000 edge_3_17_0_0 <= 0
 inactive_no_flow_4_1_0_0: flow_4_1_0_0 - 1000 edge_4_1_0_0 <= 0
 inactive_no_flow_4_2_0_0: flow_4_2_0_0 - 1000 edge_4_2_0_0 <= 0
 inactive_no_flow_4_3_0_0: flow_4_3_0_0 - 1000 edge_4_3_0_0 <= 0
 inactive_no_flow_4_6_0_0: flow_4_6_0_0 - 1000 edge_4_6_0_0 <= 0
 inactive_no_flow_4_7_0_0: flow_4_7_0_0 - 1000 edge_4_7_0_0 <= 0
 inactive_no_flow_4_8_0_0: flow_4_8_0_0 - 1000 edge_4_8_0_0 <= 0
 inactive_no_flow_4_10_0_0: flow_4_10_0_0 - 1000 edge_4_10_0_0 <= 0
 inactive_no_flow_4_11_0_0: flow_4_11_0_0 - 1000 edge_4_11_0_0 <= 0
 inactive_no_flow_4_12_0_0: flow_4_12_0_0 - 1000 edge_4_12_0_0 <= 0
 inactive_no_flow_4_14_0_0: flow_4_14_0_0 - 1000 edge_4_14_0_0 <= 0
 inactive_no_flow_4_16_0_0: flow_4_16_0_0 - 1000 edge_4_16_0_0 <= 0
 inactive_no_flow_5_4_0_0: flow_5_4_0_0 - 1000 edge_5_4_0_0 <= 0
 inactive_no_flow_5_7_0_0: flow_5_7_0_0 - 1000 edge_5_7_0_0 <= 0
 inactive_no_flow_6_1_0_0: flow_6_1_0_0 - 1000 edge_6_1_0_0 <= 0
 inactive_no_flow_6_2_0_0: flow_6_2_0_0 - 1000 edge_6_2_0_0 <= 0
 inactive_no_flow_6_3_0_0: flow_6_3_0_0 - 1000 edge_6_3_0_0 <= 0
 inactive_no_flow_6_4_0_0: flow_6_4_0_0 - 1000 edge_6_4_0_0 <= 0
 inactive_no_flow_6_5_0_0: flow_6_5_0_0 - 1000 edge_6_5_0_0 <= 0
 inactive_no_flow_6_7_0_0: flow_6_7_0_0 - 1000 edge_6_7_0_0 <= 0
 inactive_no_flow_6_8_0_0: flow_6_8_0_0 - 1000 edge_6_8_0_0 <= 0
 inactive_no_flow_6_10_0_0: flow_6_10_0_0 - 1000 edge_6_10_0_0 <= 0
 inactive_no_flow_6_11_0_0: flow_6_11_0_0 - 1000 edge_6_11_0_0 <= 0
 inactive_no_flow_6_12_0_0: flow_6_12_0_0 - 1000 edge_6_12_0_0 <= 0
 inactive_no_flow_6_14_0_0: flow_6_14_0_0 - 1000 edge_6_14_0_0 <= 0
 inactive_no_flow_6_15_0_0: flow_6_15_0_0 - 1000 edge_6_15_0_0 <= 0
 inactive_no_flow_6_16_0_0: flow_6_16_0_0 - 1000 edge_6_16_0_0 <= 0
 inactive_no_flow_6_17_0_0: flow_6_17_0_0 - 1000 edge_6_17_0_0 <= 0
 inactive_no_flow_7_1_0_0: flow_7_1_0_0 - 1000 edge_7_1_0_0 <= 0
 inactive_no_flow_7_2_0_0: flow_7_2_0_0 - 1000 edge_7_2_0_0 <= 0
 inactive_no_flow_7_3_0_0: flow_7_3_0_0 - 1000 edge_7_3_0_0 <= 0
 inactive_no_flow_7_4_0_0: flow_7_4_0_0 - 1000 edge_7_4_0_0 <= 0
 inactive_no_flow_7_5_0_0: flow_7_5_0_0 - 1000 edge_7_5_0_0 <= 0
 inactive_no_flow_7_6_0_0: flow_7_6_0_0 - 1000 edge_7_6_0_0 <= 0
 inactive_no_flow_7_8_0_0: flow_7_8_0_0 - 1000 edge_7_8_0_0 <= 0
 inactive_no_flow_7_10_0_0: flow_7_10_0_0 - 1000 edge_7_10_0_0 <= 0
 inactive_no_flow_7_11_0_0: flow_7_11_0_0 - 1000 edge_7_11_0_0 <= 0
 inactive_no_flow_7_12_0_0: flow_7_12_0_0 - 1000 edge_7_12_0_0 <= 0
 inactive_no_flow_7_14_0_0: flow_7_14_0_0 - 1000 edge_7_14_0_0 <= 0
 inactive_no_flow_7_15_0_0: flow_7_15_0_0 - 1000 edge_7_15_0_0 <= 0
 inactive_no_flow_7_16_0_0: flow_7_16_0_0 - 1000 edge_7_16_0_0 <= 0
 inactive_no_flow_7_17_0_0: flow_7_17_0_0 - 1000 edge_7_17_0_0 <= 0
 inactive_no_flow_8_11_0_0: flow_8_11_0_0 - 1000 edge_8_11_0_0 <= 0
 inactive_no_flow_8_12_0_0: flow_8_12_0_0 - 1000 edge_8_12_0_0 <= 0
 inactive_no_flow_10_6_0_0: flow_10_6_0_0 - 1000 edge_10_6_0_0 <= 0
 inactive_no_flow_10_12_0_0: flow_10_12_0_0 - 1000 edge_10_12_0_0 <= 0
 inactive_no_flow_10_14_0_0: flow_10_14_0_0 - 1000 edge_10_14_0_0 <= 0
 inactive_no_flow_11_1_0_0: flow_11_1_0_0 - 1000 edge_11_1_0_0 <= 0
 inactive_no_flow_11_2_0_0: flow_11_2_0_0 - 1000 edge_11_2_0_0 <= 0
 inactive_no_flow_11_3_0_0: flow_11_3_0_0 - 1000 edge_11_3_0_0 <= 0
 inactive_no_flow_11_4_0_0: flow_11_4_0_0 - 1000 edge_11_4_0_0 <= 0
 inactive_no_flow_11_5_0_0: flow_11_5_0_0 - 1000 edge_11_5_0_0 <= 0
 inactive_no_flow_11_6_0_0: flow_11_6_0_0 - 1000 edge_11_6_0_0 <= 0
 inactive_no_flow_11_7_0_0: flow_11_7_0_0 - 1000 edge_11_7_0_0 <= 0
 inactive_no_flow_11_8_0_0: flow_11_8_0_0 - 1000 edge_11_8_0_0 <= 0
 inactive_no_flow_11_12_0_0: flow_11_12_0_0 - 1000 edge_11_12_0_0 <= 0
 inactive_no_flow_11_13_0_0: flow_11_13_0_0 - 1000 edge_11_13_0_0 <= 0
 inactive_no_flow_11_14_0_0: flow_11_14_0_0 - 1000 edge_11_14_0_0 <= 0
 inactive_no_flow_11_15_0_0: flow_11_15_0_0 - 1000 edge_11_15_0_0 <= 0
 inactive_no_flow_11_16_0_0: flow_11_16_0_0 - 1000 edge_11_16_0_0 <= 0
 inactive_no_flow_11_17_0_0: flow_11_17_0_0 - 1000 edge_11_17_0_0 <= 0
 inactive_no_flow_12_1_0_0: flow_12_1_0_0 - 1000 edge_12_1_0_0 <= 0
 inactive_no_flow_12_2_0_0: flow_12_2_0_0 - 1000 edge_12_2_0_0 <= 0
 inactive_no_flow_12_3_0_0: flow_12_3_0_0 - 1000 edge_12_3_0_0 <= 0
 inactive_no_flow_12_4_0_0: flow_12_4_0_0 - 1000 edge_12_4_0_0 <= 0
 inactive_no_flow_12_5_0_0: flow_12_5_0_0 - 1000 edge_12_5_0_0 <= 0
 inactive_no_flow_12_6_0_0: flow_12_6_0_0 - 1000 edge_12_6_0_0 <= 0
 inactive_no_flow_12_7_0_0: flow_12_7_0_0 - 1000 edge_12_7_0_0 <= 0
 inactive_no_flow_12_8_0_0: flow_12_8_0_0 - 1000 edge_12_8_0_0 <= 0
 inactive_no_flow_12_10_0_0: flow_12_10_0_0 - 1000 edge_12_10_0_0 <= 0
 inactive_no_flow_12_11_0_0: flow_12_11_0_0 - 1000 edge_12_11_0_0 <= 0
 inactive_no_flow_12_13_0_0: flow_12_13_0_0 - 1000 edge_12_13_0_0 <= 0
 inactive_no_flow_12_14_0_0: flow_12_14_0_0 - 1000 edge_12_14_0_0 <= 0
 inactive_no_flow_12_15_0_0: flow_12_15_0_0 - 1000 edge_12_15_0_0 <= 0
 inactive_no_flow_12_16_0_0: flow_12_16_0_0 - 1000 edge_12_16_0_0 <= 0
 inactive_no_flow_12_17_0_0: flow_12_17_0_0 - 1000 edge_12_17_0_0 <= 0
 inactive_no_flow_13_12_0_0: flow_13_12_0_0 - 1000 edge_13_12_0_0 <= 0
 inactive_no_flow_14_1_0_0: flow_14_1_0_0 - 1000 edge_14_1_0_0 <= 0
 inactive_no_flow_14_2_0_0: flow_14_2_0_0 - 1000 edge_14_2_0_0 <= 0
 inactive_no_flow_14_3_0_0: flow_14_3_0_0 - 1000 edge_14_3_0_0 <= 0
 inactive_no_flow_14_4_0_0: flow_14_4_0_0 - 1000 edge_14_4_0_0 <= 0
 inactive_no_flow_14_5_0_0: flow_14_5_0_0 - 1000 edge_14_5_0_0 <= 0
 inactive_no_flow_14_6_0_0: flow_14_6_0_0 - 1000 edge_14_6_0_0 <= 0
 inactive_no_flow_14_7_0_0: flow_14_7_0_0 - 1000 edge_14_7_0_0 <= 0
 inactive_no_flow_14_8_0_0: flow_14_8_0_0 - 1000 edge_14_8_0_0 <= 0
 inactive_no_flow_14_10_0_0: flow_14_10_0_0 - 1000 edge_14_10_0_0 <= 0
 inactive_no_flow_14_11_0_0: flow_14_11_0_0 - 1000 edge_14_11_0_0 <= 0
 inactive_no_flow_14_12_0_0: flow_14_12_0_0 - 1000 edge_14_12_0_0 <= 0
 inactive_no_flow_14_13_0_0: flow_14_13_0_0 - 1000 edge_14_13_0_0 <= 0
 inactive_no_flow_14_14_0_0: flow_14_14_0_0 - 1000 edge_14_14_0_0 <= 0
 inactive_no_flow_14_15_0_0: flow_14_15_0_0 - 1000 edge_14_15_0_0 <= 0
 inactive_no_flow_14_16_0_0: flow_14_16_0_0 - 1000 edge_14_16_0_0 <= 0
 inactive_no_flow_14_17_0_0: flow_14_17_0_0 - 1000 edge_14_17_0_0 <= 0
 inactive_no_flow_15_12_0_0: flow_15_12_0_0 - 1000 edge_15_12_0_0 <= 0
 inactive_no_flow_15_14_0_0: flow_15_14_0_0 - 1000 edge_15_14_0_0 <= 0
 inactive_no_flow_15_16_0_0: flow_15_16_0_0 - 1000 edge_15_16_0_0 <= 0
 inactive_no_flow_15_17_0_0: flow_15_17_0_0 - 1000 edge_15_17_0_0 <= 0
 inactive_no_flow_16_1_0_0: flow_16_1_0_0 - 1000 edge_16_1_0_0 <= 0
 inactive_no_flow_16_2_0_0: flow_16_2_0_0 - 1000 edge_16_2_0_0 <= 0
 inactive_no_flow_16_3_0_0: flow_16_3_0_0 - 1000 edge_16_3_0_0 <= 0
 inactive_no_flow_16_4_0_0: flow_16_4_0_0 - 1000 edge_16_4_0_0 <= 0
 inactive_no_flow_16_6_0_0: flow_16_6_0_0 - 1000 edge_16_6_0_0 <= 0
 inactive_no_flow_16_7_0_0: flow_16_7_0_0 - 1000 edge_16_7_0_0 <= 0
 inactive_no_flow_16_8_0_0: flow_16_8_0_0 - 1000 edge_16_8_0_0 <= 0
 inactive_no_flow_16_10_0_0: flow_16_10_0_0 - 1000 edge_16_10_0_0 <= 0
 inactive_no_flow_16_11_0_0: flow_16_11_0_0 - 1000 edge_16_11_0_0 <= 0
 inactive_no_flow_16_12_0_0: flow_16_12_0_0 - 1000 edge_16_12_0_0 <= 0
 inactive_no_flow_16_13_0_0: flow_16_13_0_0 - 1000 edge_16_13_0_0 <= 0
 inactive_no_flow_16_14_0_0: flow_16_14_0_0 - 1000 edge_16_14_0_0 <= 0
 inactive_no_flow_16_15_0_0: flow_16_15_0_0 - 1000 edge_16_15_0_0 <= 0
 inactive_no_flow_16_17_0_0: flow_16_17_0_0 - 1000 edge_16_17_0_0 <= 0
Bounds
Binaries
 edge_0_1_0_0 edge_0_2_0_0 edge_0_3_0_0 edge_0_6_0_0 edge_0_7_0_0
 edge_0_11_0_0 edge_0_12_0_0 edge_0_14_0_0 edge_0_16_0_0 edge_1_2_0_0
 edge_1_3_0_0 edge_1_4_0_0 edge_1_6_0_0 edge_1_7_0_0 edge_1_8_0_0
 edge_1_10_0_0 edge_1_17_0_0 edge_2_1_0_0 edge_2_3_0_0 edge_2_4_0_0
 edge_2_6_0_0 edge_2_7_0_0 edge_2_8_0_0 edge_2_10_0_0 edge_2_11_0_0
 edge_2_12_0_0 edge_2_14_0_0 edge_2_16_0_0 edge_2_17_0_0 edge_3_1_0_0
 edge_3_2_0_0 edge_3_4_0_0 edge_3_5_0_0 edge_3_6_0_0 edge_3_7_0_0
 edge_3_8_0_0 edge_3_10_0_0 edge_3_11_0_0 edge_3_12_0_0 edge_3_14_0_0
 edge_3_15_0_0 edge_3_16_0_0 edge_3_17_0_0 edge_4_1_0_0 edge_4_2_0_0
 edge_4_3_0_0 edge_4_6_0_0 edge_4_7_0_0 edge_4_8_0_0 edge_4_10_0_0
 edge_4_11_0_0 edge_4_12_0_0 edge_4_14_0_0 edge_4_16_0_0 edge_5_4_0_0
 edge_5_7_0_0 edge_6_1_0_0 edge_6_2_0_0 edge_6_3_0_0 edge_6_4_0_0
 edge_6_5_0_0 edge_6_7_0_0 edge_6_8_0_0 edge_6_10_0_0 edge_6_11_0_0
 edge_6_12_0_0 edge_6_14_0_0 edge_6_15_0_0 edge_6_16_0_0 edge_6_17_0_0
 edge_7_1_0_0 edge_7_2_0_0 edge_7_3_0_0 edge_7_4_0_0 edge_7_5_0_0
 edge_7_6_0_0 edge_7_8_0_0 edge_7_10_0_0 edge_7_11_0_0 edge_7_12_0_0
 edge_7_14_0_0 edge_7_15_0_0 edge_7_16_0_0 edge_7_17_0_0 edge_8_11_0_0
 edge_8_12_0_0 edge_10_6_0_0 edge_10_12_0_0 edge_10_14_0_0 edge_11_1_0_0
 edge_11_2_0_0 edge_11_3_0_0 edge_11_4_0_0 edge_11_5_0_0 edge_11_6_0_0
 edge_11_7_0_0 edge_11_8_0_0 edge_11_12_0_0 edge_11_13_0_0 edge_11_14_0_0
 edge_11_15_0_0 edge_11_16_0_0 edge_11_17_0_0 edge_12_1_0_0 edge_12_2_0_0
 edge_12_3_0_0 edge_12_4_0_0 edge_12_5_0_0 edge_12_6_0_0 edge_12_7_0_0
 edge_12_8_0_0 edge_12_10_0_0 edge_12_11_0_0 edge_12_13_0_0 edge_12_14_0_0
 edge_12_15_0_0 edge_12_16_0_0 edge_12_17_0_0 edge_13_12_0_0 edge_14_1_0_0
 edge_14_2_0_0 edge_14_3_0_0 edge_14_4_0_0 edge_14_5_0_0 edge_14_6_0_0
 edge_14_7_0_0 edge_14_8_0_0 edge_14_10_0_0 edge_14_11_0_0 edge_14_12_0_0
 edge_14_13_0_0 edge_14_14_0_0 edge_14_15_0_0 edge_14_16_0_0 edge_14_17_0_0
 edge_15_12_0_0 edge_15_14_0_0 edge_15_16_0_0 edge_15_17_0_0 edge_16_1_0_0
 edge_16_2_0_0 edge_16_3_0_0 edge_16_4_0_0 edge_16_6_0_0 edge_16_7_0_0
 edge_16_8_0_0 edge_16_10_0_0 edge_16_11_0_0 edge_16_12_0_0 edge_16_13_0_0
 edge_16_14_0_0 edge_16_15_0_0 edge_16_17_0_0
End
